(set-info :source  loris-7.ddns.comp.nus.edu.sg/~project/hip/) 
;Variables declarations
(declare-fun l_5384 () Int)
(declare-fun a_primed () Int)
(declare-fun l_5455 () Int)
(declare-fun b_primed () Int)
(declare-fun flted_21_5373 () Int)
(declare-fun nb () Int)
(declare-fun b () Int)
(declare-fun flted_21_5374 () Int)
(declare-fun na () Int)
(declare-fun a () Int)
(declare-fun r_5459 () Int)
(declare-fun c_primed () Int)
(declare-fun flted_21_5372 () Int)
(declare-fun bha () Int)
(declare-fun nc () Int)
(declare-fun c () Int)
;Relations declarations
;Axioms assertions
;Antecedent
(assert (= l_5384 a_primed))
(assert (= a_primed a))
(assert (= b_primed b))
(assert (= flted_21_5374 1))
(assert (= flted_21_5373 0))
(assert (= l_5455 b_primed))
(assert (or (and (and (and (= flted_21_5373 0) (<= 2 bha)) (<= 1 nb)) (> b 0)) (or (and (and (and (< b 1) (= nb 0)) (= bha 1)) (= flted_21_5373 0)) (and (and (and (= flted_21_5373 1) (<= 1 bha)) (<= 1 nb)) (> b 0)))))
(assert (or (and (and (and (= flted_21_5374 0) (<= 2 bha)) (<= 1 na)) (> a 0)) (or (and (and (and (< a 1) (= na 0)) (= bha 1)) (= flted_21_5374 0)) (and (and (and (= flted_21_5374 1) (<= 1 bha)) (<= 1 na)) (> a 0)))))
(assert (= flted_21_5372 0))
(assert (= c_primed c))
(assert (= r_5459 c_primed))
(assert (or (and (and (and (= flted_21_5372 0) (<= 2 bha)) (<= 1 nc)) (> c 0)) (or (and (and (and (< c 1) (= nc 0)) (= bha 1)) (= flted_21_5372 0)) (and (and (and (= flted_21_5372 1) (<= 1 bha)) (<= 1 nc)) (> c 0)))))
;Negation of Consequence
(assert (not (or (= nc 0) (< c 1))))
(check-sat)